job_count = 14 ;
duration = [|5, 5|3, 4|14, 2|19, 9|16, 5|3, 9|11, 6|18, 3|11, 2|2, 9|4, 1|6, 6|8, 6|4, 4|] ;
machine_count = 2 ;
cost = [|15, 32|10, 30|16, 31|18, 33|18, 36|14, 29|19, 29|18, 29|11, 31|15, 35|19, 38|17, 37|10, 33|17, 36|] ;
deadline = [35, 35, 35, 35, 35, 35, 35, 35, 35, 35, 35, 35, 35, 35] ;
release = [0, 0, 0, 0, 0, 0, 0, 0, 0, 0, 0, 0, 0, 0] ;
resource = [|2, 2|9, 9|9, 9|6, 6|1, 1|1, 1|1, 1|9, 9|6, 6|2, 2|2, 2|6, 6|9, 9|8, 8|] ;
capacities = [10, 10] ;
